letting n =  10
letting blocks =  [[1, 1], [1, 2], [1, 3], [1, 9], [2, 1], [2, 2], [2, 4], [2, 6], [2, 7], [2, 10], [3, 4], [3, 5], [3, 7], [4, 5], [4, 9], [4, 10], [5, 2], [5, 4], [5, 5], [5, 8], [5, 9], [5, 10], [6, 1], [6, 2], [6, 8], [7, 3], [7, 4], [7, 6], [7, 8], [7, 10], [8, 1], [8, 3], [8, 6], [8, 10], [9, 1], [9, 2], [9, 5], [9, 6], [9, 7], [9, 10], [10, 2], [10, 8]]
